#Generated by GS JUNG@ORNL
units           metal
dimension       3
boundary        p p p 
atom_style      charge
atom_modify     sort 0 0.0    # turn off sorting of the coordinates
read_data       graphene.data

# initialize system

velocity	all create 10.0 87287 loop geom

pair_style      zero 5.2
pair_coeff	* *  

neighbor        1.0 bin
neigh_modify    every 1 delay 0 check yes

variable	dt equal 0.001
timestep        ${dt}
dump		equil all xyz 100 equil.xyz
dump_modify     equil element H He Li Be B C N O

fix             integ   all nve
fix             baros all press/berendsen x 0.0 0.0 1000.0 y 0.0 0.0 1000.0
python          post_force_callback file animpi.py
fix             2 all python/torch 1 post_force post_force_callback
fix_modify      2 energy yes

fix             therm   all langevin  10.0 10.0  0.1 699483
fix	        moment  all momentum 100 linear 1 1 1 angular

thermo      	100
thermo_style 	custom step temp ke pe press pxx pyy pzz xlo xhi ylo yhi 
thermo_modify   norm no flush yes
run 		1000

unfix		therm
fix             therm all temp/berendsen  10.0 10.0 0.1
run		1000


